QBPP_HJ-_40_025_06_2
40 328 59
34 34 31 11 40 15 2 45 15 28 35 11 1 48 15 15 9 39 48 13 6 21 45 18 3 32 29 15 17 43 21 37 14 37 1 42 50 15 24 25
    0    0    0    0  -56    0    0  -75    0    0    0    0    0    0  -35    0    0    0    0    0    0    0    0    0    0    0    0    0   -9   -2    0    0    0    0  -43    0    0    0    0    0
    0    0  -35    0   -6  -63  -79    0    0    0    0  -23  -21  -60    0    0    0    0    0  -17    0  -49  -21    0  -39    0    0    0    0    0    0    0    0  -54    0    0  -66    0    0    0
    0  -35    0    0    0    0  -77    0    0    0    0    0    0  -34    0  -69    0    0    0  -68  -37    0  -65    0    0    0    0    0    0    0    0    0    0    0    0    0    0    0    0  -99
    0    0    0    0    0    0  -92    0    0    0    0    0  -73    0    0    0    0  -73    0    0    0    0    0    0    0  -42    0    0    0    0    0    0    0    0    0    0   -6    0    0  -73
  -56   -6    0    0    0    0    0  -63    0  -34    0    0    0    0    0    0    0    0    0    0    0    0    0    0  -55    0    0    0    0    0    0    0    0    0   -4  -95    0    0    0    0
    0  -63    0    0    0    0  -80    0  -73    0    0  -89    0    0    0    0    0  -67    0    0    0    0    0    0  -45    0    0  -66  -46    0    0    0    0  -77  -23   -2    0    0    0    0
    0  -79  -77  -92    0  -80    0    0    0  -33    0    0    0   -7    0    0   -1    0    0    0    0    0  -13  -38  -61    0    0  -16    0    0  -36    0  -42    0    0  -61    0    0  -74    0
  -75    0    0    0  -63    0    0    0  -42  -19  -40    0    0  -32    0    0    0    0  -98  -38    0    0    0    0  -28    0    0    0    0    0    0    0    0    0  -92  -25  -67    0    0  -18
    0    0    0    0    0  -73    0  -42    0    0    0    0    0    0  -94  -94  -51    0    0    0  -22    0    0  -43  -23    0    0    0    0    0    0  -30    0    0  -96  -17  -74    0    0    0
    0    0    0    0  -34    0  -33  -19    0    0  -41  -52    0    0    0    0    0    0  -28    0  -87    0    0    0    0   -9    0    0   -4    0    0    0    0    0    0    0    0    0    0    0
    0    0    0    0    0    0    0  -40    0  -41    0    0    0    0    0    0    0    0    0  -66    0    0  -74    0    0    0  -83    0    0    0    0    0    0    0    0  -74  -70    0    0  -63
    0  -23    0    0    0  -89    0    0    0  -52    0    0  -79    0    0    0    0  -56    0    0  -44  -31    0    0    0    0    0    0    0    0    0    0    0    0    0    0    0   -8  -51  -44
    0  -21    0  -73    0    0    0    0    0    0    0  -79    0    0  -95    0    0    0  -23    0  -48  -41    0    0    0    0    0    0    0    0    0    0    0    0    0    0  -68    0    0    0
    0  -60  -34    0    0    0   -7  -32    0    0    0    0    0    0    0    0  -36    0    0    0    0  -95    0    0    0    0    0    0    0    0    0    0    0    0    0    0    0    0    0  -60
  -35    0    0    0    0    0    0    0  -94    0    0    0  -95    0    0    0    0    0    0  -80   -2    0    0    0    0    0  -77    0    0    0    0    0    0  -25    0  -61    0    0    0    0
    0    0  -69    0    0    0    0    0  -94    0    0    0    0    0    0    0    0    0    0    0  -70    0    0    0    0    0    0  -68    0    0    0    0  -99  -56    0    0    0    0    0    0
    0    0    0    0    0    0   -1    0  -51    0    0    0    0  -36    0    0    0    0    0  -14    0  -77    0    0    0    0    0    0   -6    0    0    0    0    0    0    0    0    0   -3    0
    0    0    0  -73    0  -67    0    0    0    0    0  -56    0    0    0    0    0    0  -37    0    0   -6  -15    0    0  -17    0  -77    0    0    0    0    0  -11  -50  -81    0    0  -33    0
    0    0    0    0    0    0    0  -98    0  -28    0    0  -23    0    0    0    0  -37    0    0    0  -73  -32    0  -57    0    0    0    0  -24    0    0  -98    0    0  -89    0    0    0  -20
    0  -17  -68    0    0    0    0  -38    0    0  -66    0    0    0  -80    0  -14    0    0    0    0    0    0    0  -61    0  -80    0  -11    0  -17   -1    0    0    0    0    0    0    0    0
    0    0  -37    0    0    0    0    0  -22  -87    0  -44  -48    0   -2  -70    0    0    0    0    0  -14    0    0    0   -9  -33    0    0    0    0    0    0    0  -59    0    0  -30    0    0
    0  -49    0    0    0    0    0    0    0    0    0  -31  -41  -95    0    0  -77   -6  -73    0  -14    0    0  -38    0    0  -44  -85    0    0  -87    0    0  -33    0    0    0   -6   -1    0
    0  -21  -65    0    0    0  -13    0    0    0  -74    0    0    0    0    0    0  -15  -32    0    0    0    0    0    0  -91    0    0    0    0  -90  -73  -35    0    0    0    0    0    0    0
    0    0    0    0    0    0  -38    0  -43    0    0    0    0    0    0    0    0    0    0    0    0  -38    0    0    0   -9    0    0    0    0    0    0   -2  -47  -50    0  -10  -28    0  -31
    0  -39    0    0  -55  -45  -61  -28  -23    0    0    0    0    0    0    0    0    0  -57  -61    0    0    0    0    0    0  -11    0    0    0    0  -75  -22    0    0    0  -91    0    0    0
    0    0    0  -42    0    0    0    0    0   -9    0    0    0    0    0    0    0  -17    0    0   -9    0  -91   -9    0    0  -58    0  -69    0    0    0  -37    0    0    0  -99    0  -76    0
    0    0    0    0    0    0    0    0    0    0  -83    0    0    0  -77    0    0    0    0  -80  -33  -44    0    0  -11  -58    0  -20    0    0    0    0    0    0  -46  -90    0  -75    0    0
    0    0    0    0    0  -66  -16    0    0    0    0    0    0    0    0  -68    0  -77    0    0    0  -85    0    0    0    0  -20    0    0  -89    0    0    0    0    0    0  -92    0    0    0
   -9    0    0    0    0  -46    0    0    0   -4    0    0    0    0    0    0   -6    0    0  -11    0    0    0    0    0  -69    0    0    0  -98    0  -68    0    0  -19    0    0    0    0    0
   -2    0    0    0    0    0    0    0    0    0    0    0    0    0    0    0    0    0  -24    0    0    0    0    0    0    0    0  -89  -98    0  -96  -11    0  -55    0    0    0    0    0    0
    0    0    0    0    0    0  -36    0    0    0    0    0    0    0    0    0    0    0    0  -17    0  -87  -90    0    0    0    0    0    0  -96    0    0    0    0    0    0    0    0    0    0
    0    0    0    0    0    0    0    0  -30    0    0    0    0    0    0    0    0    0    0   -1    0    0  -73    0  -75    0    0    0  -68  -11    0    0    0    0    0    0    0    0    0    0
    0    0    0    0    0    0  -42    0    0    0    0    0    0    0    0  -99    0    0  -98    0    0    0  -35   -2  -22  -37    0    0    0    0    0    0    0    0    0    0  -14    0    0    0
    0  -54    0    0    0  -77    0    0    0    0    0    0    0    0  -25  -56    0  -11    0    0    0  -33    0  -47    0    0    0    0    0  -55    0    0    0    0  -47    0   -8    0    0  -87
  -43    0    0    0   -4  -23    0  -92  -96    0    0    0    0    0    0    0    0  -50    0    0  -59    0    0  -50    0    0  -46    0  -19    0    0    0    0  -47    0    0    0    0    0    0
    0    0    0    0  -95   -2  -61  -25  -17    0  -74    0    0    0  -61    0    0  -81  -89    0    0    0    0    0    0    0  -90    0    0    0    0    0    0    0    0    0    0  -73  -50  -68
    0  -66    0   -6    0    0    0  -67  -74    0  -70    0  -68    0    0    0    0    0    0    0    0    0    0  -10  -91  -99    0  -92    0    0    0    0  -14   -8    0    0    0    0  -27  -41
    0    0    0    0    0    0    0    0    0    0    0   -8    0    0    0    0    0    0    0    0  -30   -6    0  -28    0    0  -75    0    0    0    0    0    0    0    0  -73    0    0    0    0
    0    0    0    0    0    0  -74    0    0    0    0  -51    0    0    0    0   -3  -33    0    0    0   -1    0    0    0  -76    0    0    0    0    0    0    0    0    0  -50  -27    0    0    0
    0    0  -99  -73    0    0    0  -18    0    0  -63  -44    0  -60    0    0    0    0  -20    0    0    0    0  -31    0    0    0    0    0    0    0    0    0  -87    0  -68  -41    0    0    0
